NAME : X_30_seed_123_id_2
TYPE : CVRP
DIMENSION : 237
EDGE_WEIGHT_TYPE : EUC_2D
CAPACITY : 18
NODE_COORD_SECTION
1	0	0
2	237	526
3	165	864
4	241	688
5	199	551
6	911	101
7	363	1000
8	801	894
9	645	358
10	487	752
11	854	948
12	625	148
13	354	238
14	924	482
15	513	864
16	281	811
17	479	17
18	353	29
19	619	22
20	47	438
21	211	493
22	638	505
23	22	551
24	575	71
25	397	379
26	470	877
27	77	1
28	377	3
29	727	242
30	867	264
31	527	863
32	159	26
33	14	323
34	227	792
35	14	763
36	11	70
37	739	407
38	581	111
39	168	571
40	492	286
41	404	59
42	74	975
43	461	984
44	269	357
45	337	269
46	407	498
47	711	236
48	536	993
49	876	107
50	667	87
51	17	56
52	865	681
53	834	139
54	419	324
55	82	75
56	858	272
57	170	91
58	39	277
59	703	393
60	360	645
61	16	331
62	446	709
63	490	469
64	945	79
65	195	920
66	32	760
67	0	590
68	127	144
69	426	441
70	146	565
71	369	338
72	595	768
73	214	655
74	663	723
75	974	191
76	697	663
77	953	100
78	959	168
79	160	223
80	441	892
81	695	862
82	782	832
83	880	395
84	162	548
85	239	541
86	729	10
87	955	799
88	769	393
89	123	173
90	533	840
91	117	54
92	442	285
93	692	856
94	788	849
95	787	231
96	463	368
97	166	802
98	540	365
99	567	989
100	371	950
101	948	175
102	578	950
103	287	825
104	333	217
105	324	27
106	839	620
107	751	480
108	739	827
109	780	467
110	273	946
111	49	979
112	298	736
113	852	301
114	23	987
115	4	925
116	298	820
117	919	614
118	397	739
119	419	153
120	758	780
121	231	788
122	345	353
123	551	205
124	980	810
125	570	560
126	174	753
127	146	907
128	291	377
129	861	875
130	32	619
131	382	342
132	829	936
133	460	219
134	219	786
135	100	542
136	561	681
137	870	16
138	731	707
139	773	315
140	786	697
141	214	551
142	379	812
143	41	837
144	151	661
145	52	724
146	333	151
147	920	144
148	122	114
149	877	930
150	208	567
151	283	705
152	545	64
153	622	895
154	642	442
155	823	21
156	425	387
157	462	99
158	742	629
159	779	292
160	751	552
161	57	62
162	326	478
163	900	90
164	344	528
165	923	886
166	922	436
167	793	688
168	92	315
169	538	592
170	636	37
171	335	904
172	799	768
173	520	305
174	454	747
175	932	743
176	754	876
177	507	510
178	133	164
179	125	806
180	643	944
181	420	201
182	905	112
183	866	519
184	534	112
185	243	838
186	372	190
187	577	293
188	659	926
189	669	175
190	728	9
191	699	80
192	904	874
193	825	927
194	87	399
195	109	267
196	418	244
197	362	942
198	493	656
199	796	568
200	291	482
201	195	6
202	658	494
203	539	616
204	213	916
205	516	108
206	176	510
207	479	763
208	896	959
209	467	411
210	888	299
211	373	943
212	484	507
213	139	17
214	628	300
215	562	497
216	4	414
217	705	812
218	570	712
219	897	337
220	695	802
221	939	664
222	783	313
223	296	299
224	621	659
225	570	707
226	884	287
227	243	339
228	959	294
229	398	401
230	710	962
231	199	796
232	455	128
233	362	117
234	212	230
235	44	577
236	289	404
237	175	160
DEMAND_SECTION
1	0
2	1
3	1
4	1
5	1
6	1
7	1
8	1
9	1
10	1
11	1
12	1
13	1
14	1
15	1
16	1
17	1
18	1
19	1
20	1
21	1
22	1
23	1
24	1
25	1
26	1
27	1
28	1
29	1
30	1
31	1
32	1
33	1
34	1
35	1
36	1
37	1
38	1
39	1
40	1
41	1
42	1
43	1
44	1
45	1
46	1
47	1
48	1
49	1
50	1
51	1
52	1
53	1
54	1
55	1
56	1
57	1
58	1
59	1
60	1
61	1
62	1
63	1
64	1
65	1
66	1
67	1
68	1
69	1
70	1
71	1
72	1
73	1
74	1
75	1
76	1
77	1
78	1
79	1
80	1
81	1
82	1
83	1
84	1
85	1
86	1
87	1
88	1
89	1
90	1
91	1
92	1
93	1
94	1
95	1
96	1
97	1
98	1
99	1
100	1
101	1
102	1
103	1
104	1
105	1
106	1
107	1
108	1
109	1
110	1
111	1
112	1
113	1
114	1
115	1
116	1
117	1
118	1
119	1
120	1
121	1
122	1
123	1
124	1
125	1
126	1
127	1
128	1
129	1
130	1
131	1
132	1
133	1
134	1
135	1
136	1
137	1
138	1
139	1
140	1
141	1
142	1
143	1
144	1
145	1
146	1
147	1
148	1
149	1
150	1
151	1
152	1
153	1
154	1
155	1
156	1
157	1
158	1
159	1
160	1
161	1
162	1
163	1
164	1
165	1
166	1
167	1
168	1
169	1
170	1
171	1
172	1
173	1
174	1
175	1
176	1
177	1
178	1
179	1
180	1
181	1
182	1
183	1
184	1
185	1
186	1
187	1
188	1
189	1
190	1
191	1
192	1
193	1
194	1
195	1
196	1
197	1
198	1
199	1
200	1
201	1
202	1
203	1
204	1
205	1
206	1
207	1
208	1
209	1
210	1
211	1
212	1
213	1
214	1
215	1
216	1
217	1
218	1
219	1
220	1
221	1
222	1
223	1
224	1
225	1
226	1
227	1
228	1
229	1
230	1
231	1
232	1
233	1
234	1
235	1
236	1
237	1
DEPOT_SECTION
1
-1
EOF
